pymatgen 4.7.6+ generated KPOINTS with grid density = 854 / atom
0
Gamma
4 3 1
