Na47 P16 S63 Cl1
1.0
13.904000 0.000000 0.000000
0.000000 13.904000 0.000000
0.000000 0.000000 14.151400
Na P S Cl
47 16 63 1
direct
0.000000 0.250000 0.710330 Na+
0.000000 0.750000 0.210330 Na+
0.000000 0.750000 0.710330 Na+
0.500000 0.250000 0.210330 Na+
0.500000 0.250000 0.710330 Na+
0.500000 0.750000 0.210330 Na+
0.500000 0.750000 0.710330 Na+
0.250000 0.000000 0.289670 Na+
0.250000 0.000000 0.789670 Na+
0.250000 0.500000 0.289670 Na+
0.250000 0.500000 0.789670 Na+
0.750000 0.000000 0.289670 Na+
0.750000 0.000000 0.789670 Na+
0.750000 0.500000 0.289670 Na+
0.750000 0.500000 0.789670 Na+
0.250000 0.000000 0.039670 Na+
0.250000 0.000000 0.539670 Na+
0.250000 0.500000 0.039670 Na+
0.250000 0.500000 0.539670 Na+
0.750000 0.000000 0.039670 Na+
0.750000 0.000000 0.539670 Na+
0.750000 0.500000 0.039670 Na+
0.750000 0.500000 0.539670 Na+
0.000000 0.250000 0.460330 Na+
0.000000 0.250000 0.960330 Na+
0.000000 0.750000 0.460330 Na+
0.000000 0.750000 0.960330 Na+
0.500000 0.250000 0.460330 Na+
0.500000 0.250000 0.960330 Na+
0.500000 0.750000 0.460330 Na+
0.500000 0.750000 0.960330 Na+
0.000000 0.000000 0.000000 Na+
0.000000 0.000000 0.500000 Na+
0.000000 0.500000 0.000000 Na+
0.000000 0.500000 0.500000 Na+
0.500000 0.000000 0.000000 Na+
0.500000 0.000000 0.500000 Na+
0.500000 0.500000 0.000000 Na+
0.500000 0.500000 0.500000 Na+
0.250000 0.250000 0.250000 Na+
0.250000 0.250000 0.750000 Na+
0.250000 0.750000 0.250000 Na+
0.250000 0.750000 0.750000 Na+
0.750000 0.250000 0.250000 Na+
0.750000 0.250000 0.750000 Na+
0.750000 0.750000 0.250000 Na+
0.750000 0.750000 0.750000 Na+
0.000000 0.000000 0.250000 P5+
0.000000 0.000000 0.750000 P5+
0.000000 0.500000 0.250000 P5+
0.000000 0.500000 0.750000 P5+
0.500000 0.000000 0.250000 P5+
0.500000 0.000000 0.750000 P5+
0.500000 0.500000 0.250000 P5+
0.500000 0.500000 0.750000 P5+
0.250000 0.250000 0.000000 P5+
0.250000 0.250000 0.500000 P5+
0.250000 0.750000 0.000000 P5+
0.250000 0.750000 0.500000 P5+
0.750000 0.250000 0.000000 P5+
0.750000 0.250000 0.500000 P5+
0.750000 0.750000 0.000000 P5+
0.750000 0.750000 0.500000 P5+
0.156220 0.173775 0.082510 S2-
0.156220 0.673775 0.082510 S2-
0.156220 0.673775 0.582510 S2-
0.656220 0.173775 0.082510 S2-
0.656220 0.173775 0.582510 S2-
0.656220 0.673775 0.082510 S2-
0.656220 0.673775 0.582510 S2-
0.173775 0.343780 0.417490 S2-
0.173775 0.343780 0.917490 S2-
0.173775 0.843780 0.417490 S2-
0.173775 0.843780 0.917490 S2-
0.673775 0.343780 0.417490 S2-
0.673775 0.343780 0.917490 S2-
0.673775 0.843780 0.417490 S2-
0.673775 0.843780 0.917490 S2-
0.326225 0.156220 0.417490 S2-
0.326225 0.156220 0.917490 S2-
0.326225 0.656220 0.417490 S2-
0.326225 0.656220 0.917490 S2-
0.826225 0.156220 0.417490 S2-
0.826225 0.156220 0.917490 S2-
0.826225 0.656220 0.417490 S2-
0.826225 0.656220 0.917490 S2-
0.406220 0.076225 0.167490 S2-
0.406220 0.076225 0.667490 S2-
0.406220 0.576225 0.167490 S2-
0.406220 0.576225 0.667490 S2-
0.906220 0.076225 0.167490 S2-
0.906220 0.076225 0.667490 S2-
0.906220 0.576225 0.167490 S2-
0.906220 0.576225 0.667490 S2-
0.093780 0.423775 0.167490 S2-
0.093780 0.423775 0.667490 S2-
0.093780 0.923775 0.167490 S2-
0.093780 0.923775 0.667490 S2-
0.593780 0.423775 0.167490 S2-
0.593780 0.423775 0.667490 S2-
0.593780 0.923775 0.167490 S2-
0.593780 0.923775 0.667490 S2-
0.343780 0.326225 0.082510 S2-
0.343780 0.326225 0.582510 S2-
0.343780 0.826225 0.082510 S2-
0.343780 0.826225 0.582510 S2-
0.843780 0.326225 0.082510 S2-
0.843780 0.326225 0.582510 S2-
0.843780 0.826225 0.082510 S2-
0.843780 0.826225 0.582510 S2-
0.076225 0.093780 0.332510 S2-
0.076225 0.093780 0.832510 S2-
0.076225 0.593780 0.332510 S2-
0.076225 0.593780 0.832510 S2-
0.576225 0.093780 0.332510 S2-
0.576225 0.093780 0.832510 S2-
0.576225 0.593780 0.332510 S2-
0.576225 0.593780 0.832510 S2-
0.423775 0.406220 0.332510 S2-
0.423775 0.406220 0.832510 S2-
0.423775 0.906220 0.332510 S2-
0.423775 0.906220 0.832510 S2-
0.923775 0.406220 0.332510 S2-
0.923775 0.406220 0.832510 S2-
0.923775 0.906220 0.332510 S2-
0.923775 0.906220 0.832510 S2-
0.156220 0.173775 0.582510 Cl-
