Li16 Sn4 S16
1.0
6.150230 0.000000 0.000000
0.000000 7.754800 0.000000
0.000000 0.000000 14.034000
Li Sn S
16 4 16
direct
0.631500 0.250000 0.587300 Li
0.131500 0.750000 0.912700 Li
0.368500 0.750000 0.412700 Li
0.868500 0.250000 0.087300 Li
0.699700 0.002700 0.823200 Li
0.199700 0.997300 0.676800 Li
0.300300 0.502700 0.176800 Li
0.800300 0.497300 0.323200 Li
0.300300 0.997300 0.176800 Li
0.800300 0.002700 0.323200 Li
0.699700 0.497300 0.823200 Li
0.199700 0.502700 0.676800 Li
0.500000 0.000000 0.000000 Li
0.000000 0.000000 0.500000 Li
0.500000 0.500000 0.000000 Li
0.000000 0.500000 0.500000 Li
0.649400 0.750000 0.589220 Sn
0.149400 0.250000 0.910780 Sn
0.350600 0.250000 0.410780 Sn
0.850600 0.750000 0.089220 Sn
0.775800 0.985100 0.657200 S
0.275800 0.014900 0.842800 S
0.224200 0.485100 0.342800 S
0.724200 0.514900 0.157200 S
0.224200 0.014900 0.342800 S
0.724200 0.985100 0.157200 S
0.775800 0.514900 0.657200 S
0.275800 0.485100 0.842800 S
0.796600 0.250000 0.912900 S
0.296600 0.750000 0.587100 S
0.203400 0.750000 0.087100 S
0.703400 0.250000 0.412900 S
0.731500 0.750000 0.939000 S
0.231500 0.250000 0.561000 S
0.268500 0.250000 0.061000 S
0.768500 0.750000 0.439000 S
