pymatgen 4.7.6+ generated KPOINTS with grid density = 737 / atom
0
Gamma
1 1 1
